Rodando pra 1h

Optimize a model with 88 rows, 93 columns and 887 nonzeros
Coefficient statistics:
  Matrix range    [1e+00, 1e+04]
  Objective range [3e-01, 3e-01]
  Bounds range    [1e+00, 1e+04]
  RHS range       [1e+00, 1e+04]
Found heuristic solution: objective 361.333
Presolve removed 12 rows and 2 columns
Presolve time: 0.00s
Presolved: 76 rows, 91 columns, 633 nonzeros
Variable types: 42 continuous, 49 integer (46 binary)

Root relaxation: objective 0.000000e+00, 33 iterations, 0.00 seconds

    Nodes    |    Current Node    |     Objective Bounds      |     Work
 Expl Unexpl |  Obj  Depth IntInf | Incumbent    BestBd   Gap | It/Node Time

     0     0    0.00000    0   15  361.33297    0.00000   100%     -    0s
H    0     0                     294.6663720    0.00000   100%     -    0s
H    0     0                     234.9997650    0.00000   100%     -    0s
     0     0    0.00000    0   18  234.99976    0.00000   100%     -    0s
H    0     0                     205.9997940    0.00000   100%     -    0s
     0     0    0.83389    0   21  205.99979    0.83389   100%     -    0s
     0     0   13.77935    0   25  205.99979   13.77935  93.3%     -    0s
     0     0   14.77597    0   25  205.99979   14.77597  92.8%     -    0s
     0     0   16.26182    0   28  205.99979   16.26182  92.1%     -    0s
     0     0   17.67674    0   26  205.99979   17.67674  91.4%     -    0s
     0     0   18.28534    0   31  205.99979   18.28534  91.1%     -    0s
H    0     0                     198.6664680   18.28534  90.8%     -    0s
     0     0   18.49041    0   28  198.66647   18.49041  90.7%     -    0s
     0     0   19.43339    0   31  198.66647   19.43339  90.2%     -    0s
     0     0   20.66784    0   31  198.66647   20.66784  89.6%     -    0s
     0     0   22.80721    0   34  198.66647   22.80721  88.5%     -    0s
     0     0   24.90475    0   32  198.66647   24.90475  87.5%     -    0s
     0     0   25.29293    0   35  198.66647   25.29293  87.3%     -    0s
     0     0   25.60612    0   33  198.66647   25.60612  87.1%     -    0s
     0     0   26.50991    0   34  198.66647   26.50991  86.7%     -    0s
     0     0   27.61090    0   32  198.66647   27.61090  86.1%     -    0s
     0     0   28.39580    0   35  198.66647   28.39580  85.7%     -    0s
     0     0   29.48555    0   35  198.66647   29.48555  85.2%     -    0s
     0     0   30.48416    0   34  198.66647   30.48416  84.7%     -    0s
     0     0   30.94306    0   35  198.66647   30.94306  84.4%     -    0s
     0     0   31.34295    0   37  198.66647   31.34295  84.2%     -    0s
     0     0   31.59138    0   35  198.66647   31.59138  84.1%     -    0s
     0     0   32.53386    0   37  198.66647   32.53386  83.6%     -    0s
     0     0   32.75324    0   38  198.66647   32.75324  83.5%     -    0s
     0     0   33.95352    0   34  198.66647   33.95352  82.9%     -    0s
     0     0   36.25775    0   35  198.66647   36.25775  81.7%     -    0s
     0     0   37.67464    0   34  198.66647   37.67464  81.0%     -    0s
     0     0   37.79268    0   34  198.66647   37.79268  81.0%     -    0s
     0     0   37.86426    0   34  198.66647   37.86426  80.9%     -    0s
     0     0   37.86426    0   34  198.66647   37.86426  80.9%     -    0s
H    0     0                     174.6664920   37.86426  78.3%     -    0s
     0     2   37.88003    0   34  174.66649   37.88003  78.3%     -    0s
*   68    47              16     172.3331610   38.24838  77.8%  11.4    0s
H  440   222                     165.9998340   59.40093  64.2%  11.0    0s

Cutting planes:
  Gomory: 4
  MIR: 35
  Flow cover: 26
  Flow path: 2
  Zero half: 2
  Network: 10

Explored 1527 nodes (17637 simplex iterations) in 0.89 seconds
Thread count was 1 (of 4 available processors)

Optimal solution found (tolerance 1.00e-04)
Best objective 1.659998340000e+02, best bound 1.659998340000e+02, gap 0.0%
Tempo: 0.89 segundos

0 2 21 44 40 60 42 
1 6 92 35 22 10 19 
2 4 81 26 22 31 12 
3 4 87 7 43 8 43 
3 6 98 15 10 5 21 
4 5 77 40 31 19 26 
(456 167 168 133 163 )

